c CNF
c from Selman's wff generator
p cnf 200  1700
1.0 -187 61 0
1.0 -122 174 0
1.0 35 76 0
1.0 30 -39 0
1.0 35 4 0
1.0 -49 79 0
1.0 -12 -99 0
1.0 -76 20 0
1.0 80 87 0
1.0 61 65 0
1.0 -140 -169 0
1.0 -8 38 0
1.0 42 38 0
1.0 -116 -198 0
1.0 97 -120 0
1.0 139 189 0
1.0 76 -134 0
1.0 198 -104 0
1.0 -73 4 0
1.0 -41 65 0
1.0 -102 191 0
1.0 -188 92 0
1.0 11 -32 0
1.0 -20 90 0
1.0 24 186 0
1.0 -90 -61 0
1.0 64 -67 0
1.0 -131 165 0
1.0 156 -159 0
1.0 50 194 0
1.0 25 83 0
1.0 -173 -175 0
1.0 161 169 0
1.0 30 176 0
1.0 -42 -55 0
1.0 20 -184 0
1.0 -142 -54 0
1.0 47 145 0
1.0 -28 -59 0
1.0 -33 -54 0
1.0 23 12 0
1.0 -188 56 0
1.0 111 -141 0
1.0 -125 7 0
1.0 60 -23 0
1.0 -168 -108 0
1.0 -167 -93 0
1.0 -146 -190 0
1.0 2 -36 0
1.0 91 163 0
1.0 -104 20 0
1.0 26 35 0
1.0 -58 151 0
1.0 58 170 0
1.0 63 14 0
1.0 -4 15 0
1.0 -51 -196 0
1.0 -158 12 0
1.0 32 71 0
1.0 -106 -183 0
1.0 -133 -136 0
1.0 106 -6 0
1.0 -20 38 0
1.0 52 -153 0
1.0 148 -21 0
1.0 -33 183 0
1.0 -54 -56 0
1.0 -38 -66 0
1.0 -1 -109 0
1.0 114 -176 0
1.0 -13 50 0
1.0 -2 -183 0
1.0 4 9 0
1.0 -192 20 0
1.0 76 -23 0
1.0 88 126 0
1.0 -35 -45 0
1.0 20 68 0
1.0 117 -37 0
1.0 20 63 0
1.0 71 120 0
1.0 -140 160 0
1.0 -183 112 0
1.0 -38 13 0
1.0 57 152 0
1.0 -19 -102 0
1.0 139 -6 0
1.0 -68 -119 0
1.0 39 -40 0
1.0 -200 -109 0
1.0 21 123 0
1.0 -135 -10 0
1.0 161 -150 0
1.0 -51 -177 0
1.0 -182 167 0
1.0 -86 -128 0
1.0 -168 -190 0
1.0 -98 -97 0
1.0 -19 -1 0
1.0 -11 -106 0
1.0 -56 -12 0
1.0 188 -65 0
1.0 32 -43 0
1.0 170 -7 0
1.0 -196 145 0
1.0 41 54 0
1.0 54 188 0
1.0 93 -156 0
1.0 167 -186 0
1.0 -50 151 0
1.0 -193 -143 0
1.0 149 -40 0
1.0 184 4 0
1.0 57 -50 0
1.0 -38 -97 0
1.0 53 10 0
1.0 -195 134 0
1.0 -84 97 0
1.0 39 -124 0
1.0 -163 -138 0
1.0 -141 -171 0
1.0 -21 56 0
1.0 -153 82 0
1.0 92 66 0
1.0 -200 196 0
1.0 -92 -56 0
1.0 -179 -197 0
1.0 134 50 0
1.0 20 61 0
1.0 116 179 0
1.0 61 -85 0
1.0 151 -96 0
1.0 92 -168 0
1.0 -23 191 0
1.0 -188 -31 0
1.0 -80 32 0
1.0 -92 66 0
1.0 45 -36 0
1.0 120 150 0
1.0 45 -93 0
1.0 -60 51 0
1.0 42 34 0
1.0 -64 -28 0
1.0 60 -145 0
1.0 -10 182 0
1.0 -17 -36 0
1.0 185 14 0
1.0 -106 -25 0
1.0 76 -86 0
1.0 -119 -133 0
1.0 -161 95 0
1.0 -39 169 0
1.0 -151 -131 0
1.0 -167 -61 0
1.0 -74 -108 0
1.0 -132 147 0
1.0 -32 -194 0
1.0 -127 69 0
1.0 -163 59 0
1.0 28 -78 0
1.0 -9 -152 0
1.0 -12 46 0
1.0 154 107 0
1.0 53 11 0
1.0 5 -15 0
1.0 84 167 0
1.0 25 125 0
1.0 2 96 0
1.0 -47 173 0
1.0 -19 -111 0
1.0 18 9 0
1.0 -20 149 0
1.0 -164 188 0
1.0 154 -173 0
1.0 97 139 0
1.0 -35 59 0
1.0 -32 94 0
1.0 5 84 0
1.0 93 -78 0
1.0 -26 -45 0
1.0 32 -91 0
1.0 -63 -127 0
1.0 66 194 0
1.0 -53 167 0
1.0 -60 121 0
1.0 5 154 0
1.0 31 176 0
1.0 20 144 0
1.0 35 79 0
1.0 6 1 0
1.0 -195 115 0
1.0 -81 -151 0
1.0 71 64 0
1.0 -18 89 0
1.0 -64 180 0
1.0 -124 -150 0
1.0 29 171 0
1.0 -171 -113 0
1.0 27 -74 0
1.0 24 143 0
1.0 -7 51 0
1.0 139 141 0
1.0 120 178 0
1.0 127 -19 0
1.0 -190 -57 0
1.0 -169 -93 0
1.0 -166 -136 0
1.0 79 149 0
1.0 -200 -54 0
1.0 -194 -182 0
1.0 -159 26 0
1.0 45 157 0
1.0 -13 -30 0
1.0 -122 118 0
1.0 53 -78 0
1.0 27 162 0
1.0 -15 124 0
1.0 105 -121 0
1.0 -77 150 0
1.0 191 9 0
1.0 -2 -28 0
1.0 -4 30 0
1.0 -108 102 0
1.0 117 133 0
1.0 -97 90 0
1.0 -11 10 0
1.0 -160 -107 0
1.0 -115 -168 0
1.0 196 -113 0
1.0 143 5 0
1.0 -107 186 0
1.0 118 1 0
1.0 90 -10 0
1.0 -20 -148 0
1.0 -54 -109 0
1.0 76 99 0
1.0 12 -118 0
1.0 123 149 0
1.0 134 121 0
1.0 121 117 0
1.0 -127 -82 0
1.0 -29 99 0
1.0 7 52 0
1.0 -151 -134 0
1.0 -52 -22 0
1.0 170 -119 0
1.0 -40 -54 0
1.0 -171 22 0
1.0 103 -82 0
1.0 180 -165 0
1.0 17 -64 0
1.0 -198 22 0
1.0 43 44 0
1.0 -162 24 0
1.0 -78 72 0
1.0 -93 -132 0
1.0 -14 -185 0
1.0 -150 -141 0
1.0 -5 48 0
1.0 70 -63 0
1.0 -107 73 0
1.0 96 -41 0
1.0 112 31 0
1.0 -162 -163 0
1.0 -148 126 0
1.0 66 149 0
1.0 197 198 0
1.0 -60 -123 0
1.0 195 102 0
1.0 143 104 0
1.0 134 82 0
1.0 45 -57 0
1.0 183 40 0
1.0 -188 -153 0
1.0 151 191 0
1.0 -114 -26 0
1.0 -128 11 0
1.0 -114 60 0
1.0 -141 -181 0
1.0 -38 14 0
1.0 53 67 0
1.0 20 -188 0
1.0 -179 72 0
1.0 -98 156 0
1.0 167 197 0
1.0 -56 -17 0
1.0 -198 70 0
1.0 83 -159 0
1.0 -26 126 0
1.0 114 199 0
1.0 -70 -195 0
1.0 -150 -183 0
1.0 -179 85 0
1.0 102 124 0
1.0 -193 12 0
1.0 170 -191 0
1.0 116 186 0
1.0 -184 54 0
1.0 48 -104 0
1.0 -87 12 0
1.0 97 -111 0
1.0 34 129 0
1.0 -140 -31 0
1.0 -22 -112 0
1.0 -97 144 0
1.0 -198 86 0
1.0 190 154 0
1.0 -166 157 0
1.0 67 -39 0
1.0 -167 -157 0
1.0 188 28 0
1.0 -139 119 0
1.0 -62 111 0
1.0 -197 -50 0
1.0 3 -147 0
1.0 104 -3 0
1.0 42 90 0
1.0 -47 197 0
1.0 24 -129 0
1.0 -47 -187 0
1.0 -98 114 0
1.0 163 -72 0
1.0 -18 -143 0
1.0 146 -164 0
1.0 -54 163 0
1.0 -159 -108 0
1.0 -36 175 0
1.0 -162 142 0
1.0 -56 159 0
1.0 -31 35 0
1.0 -177 -117 0
1.0 -81 -62 0
1.0 24 -103 0
1.0 -11 167 0
1.0 -142 -109 0
1.0 -51 -121 0
1.0 -80 -115 0
1.0 -149 -107 0
1.0 23 -127 0
1.0 188 157 0
1.0 -60 72 0
1.0 -39 -158 0
1.0 67 -46 0
1.0 167 43 0
1.0 -158 -146 0
1.0 52 112 0
1.0 -39 81 0
1.0 37 17 0
1.0 -88 -32 0
1.0 -190 84 0
1.0 -130 187 0
1.0 -30 -195 0
1.0 141 -96 0
1.0 8 126 0
1.0 6 46 0
1.0 -62 -111 0
1.0 143 -106 0
1.0 -190 -181 0
1.0 168 -160 0
1.0 -155 156 0
1.0 51 78 0
1.0 -4 155 0
1.0 1 178 0
1.0 89 191 0
1.0 -97 87 0
1.0 68 149 0
1.0 108 19 0
1.0 -174 15 0
1.0 93 44 0
1.0 -199 -188 0
1.0 166 156 0
1.0 147 73 0
1.0 -159 47 0
1.0 195 -134 0
1.0 -153 -92 0
1.0 -106 -121 0
1.0 165 -34 0
1.0 -21 -198 0
1.0 153 22 0
1.0 -94 126 0
1.0 173 -73 0
1.0 7 -139 0
1.0 30 -35 0
1.0 -155 -35 0
1.0 69 26 0
1.0 24 -43 0
1.0 64 -117 0
1.0 42 19 0
1.0 -92 87 0
1.0 26 51 0
1.0 -85 142 0
1.0 -177 123 0
1.0 -149 -40 0
1.0 -82 -10 0
1.0 -126 -23 0
1.0 -42 -111 0
1.0 197 163 0
1.0 14 88 0
1.0 -30 66 0
1.0 188 -97 0
1.0 -137 185 0
1.0 -194 -54 0
1.0 77 -65 0
1.0 176 -69 0
1.0 -32 83 0
1.0 -170 -71 0
1.0 136 -82 0
1.0 178 -57 0
1.0 -41 166 0
1.0 -20 96 0
1.0 161 -40 0
1.0 -109 -66 0
1.0 -148 -102 0
1.0 -172 -128 0
1.0 9 -123 0
1.0 179 90 0
1.0 56 32 0
1.0 -128 6 0
1.0 45 -186 0
1.0 51 -131 0
1.0 -33 77 0
1.0 -4 33 0
1.0 -155 -141 0
1.0 -31 99 0
1.0 -131 4 0
1.0 -9 133 0
1.0 119 -169 0
1.0 -100 -99 0
1.0 -175 -83 0
1.0 -116 46 0
1.0 187 190 0
1.0 -88 154 0
1.0 157 -64 0
1.0 197 -22 0
1.0 190 25 0
1.0 124 52 0
1.0 135 157 0
1.0 -3 -69 0
1.0 59 -121 0
1.0 -74 109 0
1.0 -173 -41 0
1.0 62 15 0
1.0 -39 -168 0
1.0 19 -163 0
1.0 119 -138 0
1.0 -7 121 0
1.0 41 -116 0
1.0 -25 -175 0
1.0 -16 141 0
1.0 -155 -50 0
1.0 -18 69 0
1.0 -31 -17 0
1.0 154 -191 0
1.0 112 -180 0
1.0 95 -36 0
1.0 -11 12 0
1.0 -152 -82 0
1.0 132 -30 0
1.0 -99 -55 0
1.0 72 173 0
1.0 -164 149 0
1.0 128 10 0
1.0 -45 94 0
1.0 105 58 0
1.0 -140 182 0
1.0 11 -63 0
1.0 117 -3 0
1.0 176 -117 0
1.0 66 -198 0
1.0 7 41 0
1.0 -135 158 0
1.0 16 -186 0
1.0 167 -59 0
1.0 121 44 0
1.0 46 125 0
1.0 -42 -39 0
1.0 36 175 0
1.0 15 -116 0
1.0 -74 200 0
1.0 185 -84 0
1.0 -142 68 0
1.0 111 -15 0
1.0 -140 -125 0
1.0 163 -138 0
1.0 113 -187 0
1.0 103 -136 0
1.0 135 -64 0
1.0 148 108 0
1.0 -175 200 0
1.0 14 -51 0
1.0 -176 -19 0
1.0 -157 21 0
1.0 -8 -178 0
1.0 113 72 0
1.0 -136 150 0
1.0 -57 39 0
1.0 -38 123 0
1.0 174 -157 0
1.0 176 -138 0
1.0 158 -24 0
1.0 1 -196 0
1.0 -68 161 0
1.0 110 -130 0
1.0 -168 57 0
1.0 180 -113 0
1.0 -70 60 0
1.0 -197 -189 0
1.0 -13 177 0
1.0 -172 195 0
1.0 155 89 0
1.0 18 -127 0
1.0 -183 -28 0
1.0 -140 45 0
1.0 105 -18 0
1.0 7 30 0
1.0 6 -176 0
1.0 171 -159 0
1.0 -47 58 0
1.0 184 -20 0
1.0 -47 -38 0
1.0 -83 -46 0
1.0 63 50 0
1.0 79 143 0
1.0 119 120 0
1.0 78 -79 0
1.0 -136 -3 0
1.0 23 38 0
1.0 75 -16 0
1.0 -61 -52 0
1.0 -101 -31 0
1.0 174 82 0
1.0 -2 127 0
1.0 5 -194 0
1.0 197 193 0
1.0 30 -147 0
1.0 162 144 0
1.0 -195 5 0
1.0 36 140 0
1.0 -21 140 0
1.0 -66 81 0
1.0 75 105 0
1.0 97 -71 0
1.0 17 -177 0
1.0 120 -92 0
1.0 96 -147 0
1.0 -86 141 0
1.0 41 -128 0
1.0 -29 -162 0
1.0 173 67 0
1.0 -156 -60 0
1.0 38 52 0
1.0 -166 -173 0
1.0 104 71 0
1.0 177 -88 0
1.0 -179 -6 0
1.0 -2 66 0
1.0 95 157 0
1.0 16 155 0
1.0 7 -111 0
1.0 -83 -78 0
1.0 148 -10 0
1.0 97 114 0
1.0 120 -162 0
1.0 -27 -129 0
1.0 -86 -13 0
1.0 -168 -5 0
1.0 -115 -48 0
1.0 -125 94 0
1.0 -104 -13 0
1.0 127 26 0
1.0 -187 91 0
1.0 -20 -157 0
1.0 170 -103 0
1.0 -107 161 0
1.0 8 -57 0
1.0 151 2 0
1.0 15 -3 0
1.0 -28 129 0
1.0 19 154 0
1.0 -110 160 0
1.0 63 -149 0
1.0 -109 -128 0
1.0 185 -10 0
1.0 -12 54 0
1.0 -57 43 0
1.0 171 -152 0
1.0 105 125 0
1.0 85 -171 0
1.0 -119 111 0
1.0 -39 107 0
1.0 -117 -193 0
1.0 -47 -148 0
1.0 -190 -119 0
1.0 -70 -84 0
1.0 -8 178 0
1.0 148 83 0
1.0 194 155 0
1.0 62 -37 0
1.0 -29 15 0
1.0 -163 -58 0
1.0 -176 164 0
1.0 48 62 0
1.0 -39 -9 0
1.0 92 186 0
1.0 -141 146 0
1.0 -182 173 0
1.0 188 -86 0
1.0 -143 -64 0
1.0 -27 14 0
1.0 -75 -184 0
1.0 193 76 0
1.0 -62 152 0
1.0 97 86 0
1.0 58 185 0
1.0 -70 175 0
1.0 -39 96 0
1.0 -109 -96 0
1.0 80 69 0
1.0 -145 197 0
1.0 149 124 0
1.0 -9 13 0
1.0 -197 13 0
1.0 188 106 0
1.0 2 -10 0
1.0 105 -31 0
1.0 99 191 0
1.0 188 -11 0
1.0 -135 -57 0
1.0 69 106 0
1.0 -118 -122 0
1.0 -28 10 0
1.0 -19 -23 0
1.0 -53 -32 0
1.0 -23 162 0
1.0 -172 -41 0
1.0 97 -128 0
1.0 34 -60 0
1.0 181 163 0
1.0 172 -188 0
1.0 -10 174 0
1.0 6 20 0
1.0 181 -6 0
1.0 47 -185 0
1.0 -113 -109 0
1.0 168 -140 0
1.0 -102 153 0
1.0 140 -193 0
1.0 167 -177 0
1.0 -197 -25 0
1.0 -31 38 0
1.0 22 -189 0
1.0 98 131 0
1.0 70 -175 0
1.0 127 169 0
1.0 161 -110 0
1.0 86 27 0
1.0 52 98 0
1.0 -135 -190 0
1.0 178 180 0
1.0 -110 -168 0
1.0 -142 153 0
1.0 -122 198 0
1.0 107 -150 0
1.0 177 108 0
1.0 -6 -134 0
1.0 123 -69 0
1.0 -49 -186 0
1.0 -154 115 0
1.0 -68 -90 0
1.0 87 -98 0
1.0 -48 81 0
1.0 189 -60 0
1.0 -193 -163 0
1.0 31 16 0
1.0 -191 -38 0
1.0 -176 65 0
1.0 -28 -162 0
1.0 -33 -144 0
1.0 -129 -197 0
1.0 -49 96 0
1.0 30 96 0
1.0 111 -121 0
1.0 159 -46 0
1.0 -110 -179 0
1.0 141 -150 0
1.0 94 35 0
1.0 32 189 0
1.0 85 -191 0
1.0 -86 -133 0
1.0 54 50 0
1.0 -96 104 0
1.0 -83 144 0
1.0 -93 -4 0
1.0 39 84 0
1.0 -72 -19 0
1.0 9 41 0
1.0 174 44 0
1.0 94 -188 0
1.0 -91 -183 0
1.0 -126 135 0
1.0 139 -192 0
1.0 75 -13 0
1.0 -31 198 0
1.0 -39 172 0
1.0 16 -25 0
1.0 12 -76 0
1.0 59 -91 0
1.0 25 -70 0
1.0 -62 -7 0
1.0 20 188 0
1.0 186 184 0
1.0 156 -24 0
1.0 49 74 0
1.0 -149 177 0
1.0 -67 37 0
1.0 107 -194 0
1.0 -1 195 0
1.0 183 -186 0
1.0 -170 -161 0
1.0 184 28 0
1.0 101 175 0
1.0 151 55 0
1.0 -92 -47 0
1.0 -40 163 0
1.0 158 -70 0
1.0 -56 131 0
1.0 -91 100 0
1.0 -128 44 0
1.0 18 -199 0
1.0 -53 -134 0
1.0 -181 94 0
1.0 56 109 0
1.0 -179 121 0
1.0 51 -61 0
1.0 161 6 0
1.0 -49 121 0
1.0 120 -194 0
1.0 -127 -20 0
1.0 -113 -59 0
1.0 -167 -188 0
1.0 -108 -134 0
1.0 195 -35 0
1.0 41 113 0
1.0 -33 -158 0
1.0 -152 191 0
1.0 -10 -40 0
1.0 99 112 0
1.0 99 72 0
1.0 -6 -187 0
1.0 -22 62 0
1.0 -174 197 0
1.0 -155 -107 0
1.0 -98 -82 0
1.0 122 168 0
1.0 80 -120 0
1.0 -192 -94 0
1.0 -80 -148 0
1.0 -10 -152 0
1.0 -148 -114 0
1.0 20 -147 0
1.0 29 -192 0
1.0 -160 54 0
1.0 174 -55 0
1.0 -148 1 0
1.0 -149 -159 0
1.0 -110 90 0
1.0 -3 129 0
1.0 -76 -168 0
1.0 159 -164 0
1.0 -17 -25 0
1.0 -80 173 0
1.0 174 -116 0
1.0 74 -182 0
1.0 72 19 0
1.0 147 200 0
1.0 -167 -37 0
1.0 200 181 0
1.0 6 200 0
1.0 -173 -161 0
1.0 77 -167 0
1.0 -149 146 0
1.0 165 -174 0
1.0 -173 -191 0
1.0 28 60 0
1.0 40 109 0
1.0 -108 51 0
1.0 12 43 0
1.0 9 -94 0
1.0 -40 172 0
1.0 -146 -71 0
1.0 62 48 0
1.0 -108 -122 0
1.0 -30 -160 0
1.0 11 123 0
1.0 -165 -45 0
1.0 -138 -148 0
1.0 -120 106 0
1.0 -176 95 0
1.0 -143 40 0
1.0 -161 -41 0
1.0 -1 190 0
1.0 112 147 0
1.0 191 -142 0
1.0 -90 179 0
1.0 84 85 0
1.0 179 -56 0
1.0 -96 21 0
1.0 62 168 0
1.0 157 175 0
1.0 -121 -106 0
1.0 48 -194 0
1.0 -172 143 0
1.0 -27 21 0
1.0 -76 -10 0
1.0 31 98 0
1.0 -66 74 0
1.0 48 -28 0
1.0 134 -36 0
1.0 -30 117 0
1.0 60 65 0
1.0 85 -169 0
1.0 -179 19 0
1.0 -116 -159 0
1.0 33 55 0
1.0 83 96 0
1.0 -132 -127 0
1.0 -43 -116 0
1.0 -180 16 0
1.0 185 -79 0
1.0 -97 158 0
1.0 -116 -73 0
1.0 127 199 0
1.0 95 76 0
1.0 -2 22 0
1.0 -138 -147 0
1.0 -163 -134 0
1.0 -13 -7 0
1.0 -164 82 0
1.0 154 117 0
1.0 115 56 0
1.0 131 -115 0
1.0 -137 21 0
1.0 -168 -124 0
1.0 57 173 0
1.0 -180 -187 0
1.0 68 100 0
1.0 -17 -51 0
1.0 -107 192 0
1.0 -106 176 0
1.0 -196 -148 0
1.0 71 -107 0
1.0 -80 170 0
1.0 156 175 0
1.0 75 25 0
1.0 76 -147 0
1.0 139 163 0
1.0 138 -189 0
1.0 137 3 0
1.0 -110 -190 0
1.0 159 -130 0
1.0 -105 -49 0
1.0 74 -184 0
1.0 -131 91 0
1.0 -53 -150 0
1.0 -139 199 0
1.0 2 -20 0
1.0 9 -14 0
1.0 144 146 0
1.0 195 20 0
1.0 3 -96 0
1.0 186 147 0
1.0 96 114 0
1.0 -113 -153 0
1.0 173 -189 0
1.0 -3 -124 0
1.0 -70 31 0
1.0 -50 20 0
1.0 -115 -148 0
1.0 -94 -188 0
1.0 101 169 0
1.0 -121 131 0
1.0 119 -152 0
1.0 76 -23 0
1.0 53 -60 0
1.0 -79 -142 0
1.0 89 -142 0
1.0 -129 33 0
1.0 1 -195 0
1.0 125 171 0
1.0 -123 -89 0
1.0 -112 -32 0
1.0 91 -153 0
1.0 -95 -23 0
1.0 -165 56 0
1.0 -89 138 0
1.0 132 166 0
1.0 -137 25 0
1.0 114 65 0
1.0 -96 -200 0
1.0 -153 56 0
1.0 78 119 0
1.0 -174 196 0
1.0 -133 57 0
1.0 -23 -162 0
1.0 187 -22 0
1.0 -87 -74 0
1.0 -74 113 0
1.0 168 124 0
1.0 43 104 0
1.0 100 22 0
1.0 78 -30 0
1.0 192 -18 0
1.0 40 -77 0
1.0 -150 3 0
1.0 116 76 0
1.0 -200 124 0
1.0 27 -16 0
1.0 -37 -137 0
1.0 166 -55 0
1.0 -73 -74 0
1.0 150 14 0
1.0 -17 -145 0
1.0 20 173 0
1.0 97 -144 0
1.0 159 -119 0
1.0 -55 7 0
1.0 -62 -123 0
1.0 197 -114 0
1.0 128 -84 0
1.0 29 169 0
1.0 142 91 0
1.0 -34 -129 0
1.0 -48 -10 0
1.0 -17 95 0
1.0 17 100 0
1.0 -13 -59 0
1.0 143 -5 0
1.0 173 -160 0
1.0 -50 87 0
1.0 15 114 0
1.0 -123 -62 0
1.0 156 -86 0
1.0 -186 -30 0
1.0 -89 145 0
1.0 149 -23 0
1.0 182 22 0
1.0 -108 -189 0
1.0 -103 190 0
1.0 -51 149 0
1.0 -34 183 0
1.0 13 -165 0
1.0 -110 156 0
1.0 -179 -135 0
1.0 -156 17 0
1.0 -6 -105 0
1.0 -94 -170 0
1.0 -118 -98 0
1.0 -80 131 0
1.0 -96 189 0
1.0 145 -125 0
1.0 60 43 0
1.0 60 73 0
1.0 -177 63 0
1.0 33 -106 0
1.0 -3 167 0
1.0 -97 -73 0
1.0 -62 167 0
1.0 -91 -60 0
1.0 -103 -10 0
1.0 82 43 0
1.0 -105 -200 0
1.0 105 -145 0
1.0 -111 190 0
1.0 -63 -163 0
1.0 -129 197 0
1.0 -56 -57 0
1.0 -67 -134 0
1.0 176 148 0
1.0 147 136 0
1.0 -80 -107 0
1.0 -96 -147 0
1.0 110 197 0
1.0 193 12 0
1.0 69 -27 0
1.0 161 -128 0
1.0 76 89 0
1.0 25 -36 0
1.0 142 32 0
1.0 -178 91 0
1.0 -87 79 0
1.0 -91 -182 0
1.0 9 -136 0
1.0 -64 -176 0
1.0 -65 124 0
1.0 -159 -35 0
1.0 -66 86 0
1.0 -176 135 0
1.0 -14 -56 0
1.0 38 71 0
1.0 7 156 0
1.0 131 -121 0
1.0 44 170 0
1.0 -5 77 0
1.0 -162 -43 0
1.0 -178 -44 0
1.0 99 -143 0
1.0 -14 157 0
1.0 112 196 0
1.0 117 -99 0
1.0 -68 122 0
1.0 -199 -67 0
1.0 110 55 0
1.0 98 -97 0
1.0 -39 172 0
1.0 128 112 0
1.0 108 161 0
1.0 -59 -120 0
1.0 -41 148 0
1.0 -15 -140 0
1.0 195 96 0
1.0 192 88 0
1.0 59 -19 0
1.0 131 155 0
1.0 115 -107 0
1.0 -26 47 0
1.0 -195 99 0
1.0 -39 104 0
1.0 -200 -144 0
1.0 31 12 0
1.0 31 -105 0
1.0 -59 -100 0
1.0 -7 60 0
1.0 107 -47 0
1.0 -146 -4 0
1.0 108 -43 0
1.0 187 142 0
1.0 -153 -120 0
1.0 -24 181 0
1.0 81 142 0
1.0 -2 -3 0
1.0 50 -17 0
1.0 -21 -119 0
1.0 162 -196 0
1.0 -137 134 0
1.0 54 70 0
1.0 -50 -17 0
1.0 158 -16 0
1.0 18 136 0
1.0 153 -75 0
1.0 -193 -41 0
1.0 -36 -138 0
1.0 71 -65 0
1.0 -135 -1 0
1.0 -161 -115 0
1.0 -132 67 0
1.0 133 60 0
1.0 -121 -193 0
1.0 -94 153 0
1.0 -53 -169 0
1.0 31 -25 0
1.0 -26 -36 0
1.0 -151 25 0
1.0 -92 154 0
1.0 13 -168 0
1.0 160 30 0
1.0 182 91 0
1.0 -60 186 0
1.0 11 4 0
1.0 40 -173 0
1.0 198 182 0
1.0 -135 -21 0
1.0 188 -143 0
1.0 172 -175 0
1.0 -65 -85 0
1.0 71 141 0
1.0 -145 -70 0
1.0 -43 138 0
1.0 -119 46 0
1.0 67 41 0
1.0 184 -81 0
1.0 -55 -2 0
1.0 87 -97 0
1.0 38 -58 0
1.0 -128 -154 0
1.0 91 139 0
1.0 185 139 0
1.0 -179 -63 0
1.0 -144 -106 0
1.0 -108 -27 0
1.0 -124 -161 0
1.0 -19 -188 0
1.0 -141 107 0
1.0 46 125 0
1.0 64 103 0
1.0 166 -186 0
1.0 -92 -123 0
1.0 -149 25 0
1.0 186 143 0
1.0 -130 175 0
1.0 -81 -65 0
1.0 -190 143 0
1.0 46 37 0
1.0 -23 -99 0
1.0 -21 -27 0
1.0 51 104 0
1.0 46 -75 0
1.0 49 -189 0
1.0 54 148 0
1.0 91 -10 0
1.0 -47 190 0
1.0 -89 -67 0
1.0 -94 -79 0
1.0 121 -181 0
1.0 20 17 0
1.0 63 172 0
1.0 -26 105 0
1.0 199 -36 0
1.0 183 152 0
1.0 -134 186 0
1.0 65 -87 0
1.0 -67 66 0
1.0 83 -22 0
1.0 -194 157 0
1.0 61 56 0
1.0 92 136 0
1.0 -88 125 0
1.0 110 -66 0
1.0 -152 71 0
1.0 -137 139 0
1.0 -161 -200 0
1.0 -156 120 0
1.0 176 26 0
1.0 -162 124 0
1.0 48 -64 0
1.0 -130 117 0
1.0 188 -91 0
1.0 -29 -4 0
1.0 -3 -109 0
1.0 -29 115 0
1.0 140 -50 0
1.0 -173 11 0
1.0 -75 20 0
1.0 137 -109 0
1.0 199 185 0
1.0 188 -192 0
1.0 -100 -159 0
1.0 -73 123 0
1.0 -172 -2 0
1.0 -12 65 0
1.0 85 143 0
1.0 -51 176 0
1.0 160 -192 0
1.0 -184 94 0
1.0 52 -85 0
1.0 -8 -142 0
1.0 -143 -52 0
1.0 117 89 0
1.0 32 132 0
1.0 -107 166 0
1.0 158 -9 0
1.0 102 -151 0
1.0 36 35 0
1.0 177 -15 0
1.0 66 -145 0
1.0 -34 115 0
1.0 -46 -5 0
1.0 171 -79 0
1.0 88 -32 0
1.0 -182 93 0
1.0 128 -21 0
1.0 36 -80 0
1.0 25 97 0
1.0 -11 66 0
1.0 71 -9 0
1.0 27 169 0
1.0 38 -26 0
1.0 169 -57 0
1.0 116 -162 0
1.0 184 126 0
1.0 9 79 0
1.0 -2 148 0
1.0 156 -186 0
1.0 154 -58 0
1.0 -83 80 0
1.0 137 180 0
1.0 141 -66 0
1.0 192 67 0
1.0 146 -96 0
1.0 43 -20 0
1.0 -6 -39 0
1.0 -97 -21 0
1.0 101 72 0
1.0 52 -72 0
1.0 -138 -137 0
1.0 -4 -121 0
1.0 17 4 0
1.0 24 114 0
1.0 -152 39 0
1.0 60 -138 0
1.0 -10 58 0
1.0 130 88 0
1.0 -24 169 0
1.0 -90 -126 0
1.0 -130 -70 0
1.0 -183 -25 0
1.0 -64 -169 0
1.0 107 -10 0
1.0 -68 -82 0
1.0 170 -30 0
1.0 199 61 0
1.0 -186 -195 0
1.0 65 161 0
1.0 -185 49 0
1.0 -18 -166 0
1.0 176 55 0
1.0 137 -17 0
1.0 47 106 0
1.0 -166 -119 0
1.0 113 -127 0
1.0 87 134 0
1.0 -182 -8 0
1.0 -174 -90 0
1.0 -145 163 0
1.0 -180 34 0
1.0 139 -85 0
1.0 3 -2 0
1.0 128 122 0
1.0 56 119 0
1.0 127 -5 0
1.0 95 159 0
1.0 -122 -42 0
1.0 -75 106 0
1.0 -191 -195 0
1.0 -197 -174 0
1.0 -96 -2 0
1.0 -121 25 0
1.0 -29 -24 0
1.0 -183 -197 0
1.0 38 -82 0
1.0 -187 -130 0
1.0 -124 -44 0
1.0 17 -79 0
1.0 80 183 0
1.0 7 51 0
1.0 -75 195 0
1.0 -191 121 0
1.0 -3 -165 0
1.0 -94 67 0
1.0 -111 -136 0
1.0 14 182 0
1.0 164 -102 0
1.0 152 141 0
1.0 135 -166 0
1.0 -87 44 0
1.0 8 -94 0
1.0 -161 44 0
1.0 -179 -56 0
1.0 38 36 0
1.0 -138 179 0
1.0 -119 179 0
1.0 -144 199 0
1.0 -43 131 0
1.0 -24 -197 0
1.0 40 70 0
1.0 126 -52 0
1.0 -88 95 0
1.0 -73 -136 0
1.0 115 30 0
1.0 28 21 0
1.0 -151 -7 0
1.0 -3 71 0
1.0 141 13 0
1.0 64 -71 0
1.0 -165 193 0
1.0 129 90 0
1.0 -119 -72 0
1.0 92 189 0
1.0 195 -137 0
1.0 8 -176 0
1.0 188 101 0
1.0 171 -43 0
1.0 -36 -178 0
1.0 67 -1 0
1.0 -72 -107 0
1.0 95 149 0
1.0 85 23 0
1.0 198 -128 0
1.0 29 -54 0
1.0 -97 -40 0
1.0 17 107 0
1.0 107 -103 0
1.0 -9 -1 0
1.0 -149 148 0
1.0 -170 -81 0
1.0 -8 165 0
1.0 18 -190 0
1.0 29 169 0
1.0 -76 -141 0
1.0 -44 198 0
1.0 -198 -102 0
1.0 -49 149 0
1.0 -30 104 0
1.0 68 138 0
1.0 -128 -108 0
1.0 77 -45 0
1.0 -186 132 0
1.0 129 -94 0
1.0 195 37 0
1.0 185 52 0
1.0 156 46 0
1.0 -184 -125 0
1.0 32 -108 0
1.0 153 -71 0
1.0 -2 -193 0
1.0 86 47 0
1.0 -83 130 0
1.0 182 -183 0
1.0 -29 133 0
1.0 -58 70 0
1.0 -178 -191 0
1.0 62 57 0
1.0 -50 -33 0
1.0 80 -50 0
1.0 180 -139 0
1.0 122 -111 0
1.0 -44 -59 0
1.0 -128 -85 0
1.0 76 -188 0
1.0 -45 102 0
1.0 135 192 0
1.0 -42 46 0
1.0 -185 -6 0
1.0 117 -79 0
1.0 138 17 0
1.0 -102 -52 0
1.0 -39 5 0
1.0 -107 113 0
1.0 105 -7 0
1.0 -53 32 0
1.0 -37 -148 0
1.0 -27 -198 0
1.0 14 -174 0
1.0 25 200 0
1.0 -5 -7 0
1.0 -120 124 0
1.0 -131 -7 0
1.0 38 137 0
1.0 85 -161 0
1.0 158 -140 0
1.0 113 -104 0
1.0 104 -180 0
1.0 186 -148 0
1.0 -71 170 0
1.0 -177 99 0
1.0 35 -2 0
1.0 162 -116 0
1.0 55 -106 0
1.0 -10 -178 0
1.0 157 -106 0
1.0 53 -38 0
1.0 -7 -175 0
1.0 -73 -106 0
1.0 108 87 0
1.0 -3 57 0
1.0 163 -80 0
1.0 57 129 0
1.0 -34 104 0
1.0 141 -2 0
1.0 -177 132 0
1.0 -38 -130 0
1.0 17 184 0
1.0 41 2 0
1.0 -81 -100 0
1.0 -29 58 0
1.0 -161 -106 0
1.0 108 157 0
1.0 -88 -180 0
1.0 109 -91 0
1.0 -75 -83 0
1.0 -84 -19 0
1.0 -119 -92 0
1.0 150 -53 0
1.0 158 156 0
1.0 -112 -60 0
1.0 -39 -82 0
1.0 173 193 0
1.0 -75 -16 0
1.0 -34 -80 0
1.0 171 -26 0
1.0 78 106 0
1.0 62 -42 0
1.0 -102 -48 0
1.0 130 -97 0
1.0 -89 -160 0
1.0 -175 110 0
1.0 -189 -46 0
1.0 71 -59 0
1.0 -165 111 0
1.0 -152 82 0
1.0 -130 172 0
1.0 -68 -81 0
1.0 -41 111 0
1.0 21 43 0
1.0 -89 -184 0
1.0 -42 49 0
1.0 159 -90 0
1.0 -172 -30 0
1.0 -2 157 0
1.0 37 124 0
1.0 34 147 0
1.0 190 115 0
1.0 98 -32 0
1.0 -80 145 0
1.0 -35 175 0
1.0 -5 113 0
1.0 -69 -76 0
1.0 101 183 0
1.0 75 -80 0
1.0 142 -114 0
1.0 151 26 0
1.0 -170 -91 0
1.0 -40 -135 0
1.0 43 -156 0
1.0 -31 -128 0
1.0 -111 -129 0
1.0 -8 -15 0
1.0 -129 61 0
1.0 -87 175 0
1.0 65 -103 0
1.0 38 151 0
1.0 -106 -78 0
1.0 5 -94 0
1.0 22 46 0
1.0 -61 -74 0
1.0 135 101 0
1.0 75 -42 0
1.0 145 -79 0
1.0 29 -101 0
1.0 179 -52 0
1.0 145 -138 0
1.0 -183 198 0
1.0 72 174 0
1.0 74 -100 0
1.0 141 105 0
1.0 183 131 0
1.0 -31 127 0
1.0 -178 -16 0
1.0 153 -90 0
1.0 -87 -84 0
1.0 -58 -10 0
1.0 109 192 0
1.0 -96 166 0
1.0 96 -200 0
1.0 -127 -36 0
1.0 52 126 0
1.0 -15 -114 0
1.0 198 118 0
1.0 -128 24 0
1.0 16 -65 0
1.0 -30 -21 0
1.0 20 -80 0
1.0 116 -186 0
1.0 -112 -75 0
1.0 189 -111 0
1.0 29 -88 0
1.0 -112 -25 0
1.0 90 -80 0
1.0 100 -27 0
1.0 107 97 0
1.0 -83 -114 0
1.0 -189 -160 0
1.0 -71 148 0
1.0 36 -2 0
1.0 26 -49 0
1.0 128 113 0
1.0 -140 80 0
1.0 176 11 0
1.0 125 -57 0
1.0 17 172 0
1.0 -120 -51 0
1.0 -52 41 0
1.0 -90 177 0
1.0 90 27 0
1.0 106 190 0
1.0 -1 -142 0
1.0 198 191 0
1.0 162 126 0
1.0 176 86 0
1.0 -127 139 0
1.0 116 97 0
1.0 124 77 0
1.0 -67 107 0
1.0 -48 50 0
1.0 40 28 0
1.0 153 -158 0
1.0 -44 -120 0
1.0 -58 -60 0
1.0 -156 19 0
1.0 -96 -12 0
1.0 118 -19 0
1.0 68 -21 0
1.0 -49 69 0
1.0 -27 193 0
1.0 112 -85 0
1.0 -144 25 0
1.0 -44 -121 0
1.0 -133 88 0
1.0 106 -131 0
1.0 151 -26 0
1.0 -95 -190 0
1.0 -183 129 0
1.0 14 -30 0
1.0 55 6 0
1.0 126 37 0
1.0 -124 138 0
1.0 68 124 0
1.0 149 83 0
1.0 -73 16 0
1.0 -145 -155 0
1.0 -185 11 0
1.0 -16 -172 0
1.0 -8 -174 0
1.0 -112 -108 0
1.0 -31 -163 0
1.0 46 -14 0
1.0 -29 -186 0
1.0 -141 -122 0
1.0 -132 -45 0
1.0 17 102 0
1.0 -76 -89 0
1.0 -196 116 0
1.0 79 -163 0
1.0 176 27 0
1.0 -13 -16 0
1.0 137 108 0
1.0 153 -42 0
1.0 -143 106 0
1.0 195 -149 0
1.0 65 -170 0
1.0 132 -21 0
1.0 -48 110 0
1.0 126 89 0
1.0 -197 -91 0
1.0 -133 148 0
1.0 53 112 0
1.0 61 -97 0
1.0 67 -53 0
1.0 -73 -137 0
1.0 -46 -18 0
1.0 107 -193 0
1.0 84 165 0
1.0 113 -171 0
1.0 82 -184 0
1.0 81 -49 0
1.0 -101 -136 0
1.0 72 -51 0
1.0 69 -73 0
1.0 65 -123 0
1.0 -88 -130 0
1.0 -101 -55 0
1.0 -39 -177 0
1.0 26 -191 0
1.0 127 -12 0
1.0 -63 -193 0
1.0 -65 -6 0
1.0 129 184 0
1.0 114 42 0
1.0 -97 -181 0
1.0 157 -119 0
1.0 -110 121 0
1.0 132 -9 0
1.0 -2 150 0
1.0 -156 30 0
1.0 13 -74 0
1.0 -116 115 0
1.0 -95 135 0
1.0 53 -3 0
1.0 -123 144 0
1.0 153 -31 0
1.0 181 -172 0
1.0 2 16 0
1.0 -90 119 0
1.0 33 -81 0
1.0 -15 166 0
1.0 168 14 0
1.0 -157 -27 0
1.0 58 193 0
1.0 -165 -82 0
1.0 -98 -194 0
1.0 -112 -122 0
1.0 2 10 0
1.0 176 -52 0
1.0 65 113 0
1.0 -139 -179 0
1.0 172 -191 0
1.0 -73 -8 0
1.0 -1 -83 0
1.0 4 149 0
1.0 159 -130 0
1.0 181 104 0
1.0 16 -112 0
1.0 -91 195 0
1.0 -186 185 0
1.0 193 -99 0
1.0 -182 -185 0
1.0 -134 163 0
1.0 92 10 0
1.0 -114 -105 0
1.0 17 -183 0
1.0 -177 -35 0
1.0 19 166 0
1.0 65 48 0
1.0 33 -110 0
1.0 73 -19 0
1.0 29 -85 0
1.0 189 154 0
1.0 -136 -154 0
1.0 189 80 0
1.0 45 -95 0
1.0 -143 -22 0
1.0 -132 185 0
1.0 -4 199 0
1.0 -83 4 0
1.0 157 44 0
1.0 198 -187 0
1.0 -67 -80 0
1.0 175 -10 0
1.0 32 -176 0
1.0 -160 -33 0
1.0 -32 -134 0
1.0 -137 169 0
1.0 -12 62 0
1.0 -49 -191 0
1.0 71 186 0
1.0 -196 46 0
1.0 -21 -53 0
1.0 -86 -155 0
1.0 89 140 0
1.0 -108 -16 0
1.0 -77 -106 0
1.0 97 -121 0
1.0 107 -65 0
1.0 -111 -172 0
1.0 -25 -118 0
1.0 73 -57 0
1.0 -197 -56 0
1.0 72 -105 0
1.0 11 -150 0
1.0 71 -113 0
1.0 178 84 0
1.0 56 8 0
1.0 -125 -132 0
1.0 -188 -15 0
1.0 71 -144 0
1.0 49 111 0
1.0 -60 -163 0
1.0 -76 38 0
1.0 -122 -186 0
1.0 193 -159 0
1.0 -90 45 0
1.0 59 -74 0
1.0 18 149 0
1.0 -59 -161 0
1.0 124 -90 0
1.0 127 156 0
1.0 141 -191 0
1.0 149 80 0
1.0 -125 -167 0
1.0 -40 177 0
1.0 -126 -183 0
1.0 -144 48 0
1.0 137 151 0
1.0 -106 115 0
1.0 -106 136 0
1.0 16 -32 0
1.0 -198 9 0
1.0 186 -36 0
1.0 19 -18 0
1.0 65 198 0
1.0 148 93 0
1.0 -8 -177 0
1.0 -113 -81 0
1.0 112 -60 0
1.0 -68 193 0
1.0 -29 42 0
1.0 60 -59 0
1.0 -56 37 0
1.0 130 -190 0
1.0 166 157 0
1.0 37 -17 0
1.0 76 -75 0
1.0 -67 6 0
1.0 -48 -160 0
1.0 18 150 0
1.0 187 -156 0
1.0 145 -133 0
1.0 -89 -104 0
1.0 120 -194 0
1.0 -68 -133 0
1.0 139 -134 0
